
Gurobi 9.1.2 (linux64, gurobi_cl) logging started Fri Jul 30 13:51:56 2021

Using license file /opt/gurobi/gurobi.lic
Set parameter TimeLimit to value 600
Set parameter LogFile to value 912-glass4-1.log
Set parameter Seed to value 1

Gurobi Optimizer version 9.1.2 build v9.1.2rc0 (linux64)
Copyright (c) 2021, Gurobi Optimization, LLC

Read MPS format model from file /nfs/models/mip/glass4.mps.bz2
Reading time = 0.15 seconds
glass4: 396 rows, 322 columns, 1815 nonzeros
Thread count: 4 physical cores, 8 logical processors, using up to 8 threads
Optimize a model with 396 rows, 322 columns and 1815 nonzeros
Model fingerprint: 0x0a9d9037
Variable types: 20 continuous, 302 integer (0 binary)
Coefficient statistics:
  Matrix range     [1e+00, 8e+06]
  Objective range  [1e+00, 1e+06]
  Bounds range     [1e+00, 8e+02]
  RHS range        [1e+00, 8e+06]
Presolve removed 6 rows and 6 columns
Presolve time: 0.00s
Presolved: 390 rows, 316 columns, 1803 nonzeros
Variable types: 19 continuous, 297 integer (297 binary)
Found heuristic solution: objective 3.133356e+09

Root relaxation: objective 8.000024e+08, 72 iterations, 0.00 seconds

    Nodes    |    Current Node    |     Objective Bounds      |     Work
 Expl Unexpl |  Obj  Depth IntInf | Incumbent    BestBd   Gap | It/Node Time

     0     0 8.0000e+08    0   72 3.1334e+09 8.0000e+08  74.5%     -    0s
H    0     0                    2.250018e+09 8.0000e+08  64.4%     -    0s
H    0     0                    2.150017e+09 8.0000e+08  62.8%     -    0s
     0     0 8.0000e+08    0   72 2.1500e+09 8.0000e+08  62.8%     -    0s
     0     0 8.0000e+08    0   72 2.1500e+09 8.0000e+08  62.8%     -    0s
     0     0 8.0000e+08    0   73 2.1500e+09 8.0000e+08  62.8%     -    0s
     0     0 8.0000e+08    0   73 2.1500e+09 8.0000e+08  62.8%     -    0s
     0     2 8.0000e+08    0   73 2.1500e+09 8.0000e+08  62.8%     -    0s
H   67   184                    2.100017e+09 8.0000e+08  61.9%  12.6    0s
H  125   184                    2.050017e+09 8.0000e+08  61.0%   8.5    0s
H  210   395                    2.000016e+09 8.0000e+08  60.0%   6.5    0s
H 1157  1050                    2.000016e+09 8.0000e+08  60.0%   6.1    0s
H 1215   999                    1.933348e+09 8.0000e+08  58.6%   6.1    0s
H 1216   950                    1.925015e+09 8.0000e+08  58.4%   6.1    0s
H 1222   906                    1.850015e+09 8.0001e+08  56.8%   6.1    0s
H 1293   917                    1.700015e+09 8.0001e+08  52.9%   8.6    0s
H 1302   911                    1.700015e+09 8.0001e+08  52.9%   8.6    0s
H 1392   893                    1.700014e+09 8.0001e+08  52.9%   9.5    1s
H 1572   976                    1.600014e+09 8.0001e+08  50.0%  11.7    1s
* 3028  1537              34    1.600013e+09 8.0001e+08  50.0%  20.2    2s
H 3385  1515                    1.500014e+09 8.0001e+08  46.7%  20.9    3s
H 4500  2024                    1.480014e+09 8.0001e+08  45.9%  24.8    4s
  5166  2373 1.0400e+09   36   73 1.4800e+09 8.0001e+08  45.9%  26.0    5s
* 5473  2417              38    1.460014e+09 8.0001e+08  45.2%  27.1    5s
* 6926  3141              68    1.442872e+09 8.0001e+08  44.6%  31.3    6s
H 7523  3223                    1.425014e+09 8.0001e+08  43.9%  32.9    7s
* 8342  3575              47    1.400014e+09 8.0001e+08  42.9%  35.1    7s
 11376  4810 infeasible   27      1.4000e+09 8.1081e+08  42.1%  41.0   10s
 19954  7379 infeasible   27      1.4000e+09 9.0001e+08  35.7%  46.7   15s
 27236  8596 infeasible   35      1.4000e+09 9.0001e+08  35.7%  47.9   20s
 29286  8771 1.2000e+09   29  113 1.4000e+09 9.0001e+08  35.7%  47.9   25s
H29332  8360                    1.400014e+09 9.0001e+08  35.7%  47.9   28s
 29349  8371 1.0000e+09   36  110 1.4000e+09 9.0001e+08  35.7%  47.8   30s
 29408  8411 1.1000e+09   35  127 1.4000e+09 9.0001e+08  35.7%  47.7   35s
 29469  8456 9.0106e+08   27   84 1.4000e+09 9.0001e+08  35.7%  49.0   40s
H29833  8115                    1.375015e+09 9.0007e+08  34.5%  48.8   41s
H30049  7694                    1.200013e+09 9.0007e+08  25.0%  48.7   42s

Cutting planes:
  Gomory: 1
  Cover: 2
  Implied bound: 2
  Projected implied bound: 1
  MIR: 28
  Flow cover: 48
  Zero half: 1
  Relax-and-lift: 51

Explored 30650 nodes (1495230 simplex iterations) in 42.79 seconds
Thread count was 8 (of 8 available processors)

Solution count 10: 1.20001e+09 1.37501e+09 1.40001e+09 ... 1.60001e+09

Optimal solution found (tolerance 1.00e-04)
Best objective 1.200012600000e+09, best bound 1.200004483490e+09, gap 0.0007%
